flow=[(0,2,1)(0,7,1)(0,15,2)(1,3,2)(1,4,2)(1,6,4)(1,7,1)(1,8,2)(2,5,1)(2,6,2)(2,7,2)(2,9,1)(2,10,1)(3,6,4)(3,9,2)(4,6,3)(4,7,3)(4,8,1)(4,10,3)(5,0,1)(5,4,1)(5,6,3)(5,7,1)(5,9,2)(6,1,1)(6,2,1)(6,4,2)(6,7,1)(6,9,3)(6,10,2)(6,11,1)(7,3,1)(7,6,1)(7,11,2)(8,1,2)(8,2,2)(8,5,0)(8,6,1)(9,0,1)(9,1,1)(9,4,0)(9,6,3)(9,7,1)(9,11,0)(9,13,0)(10,3,2)(10,6,7)(10,7,3)(10,8,1)(10,11,1)(11,5,1)(11,7,3)(11,9,2)(11,14,1)(12,15,1)(14,2,1)(14,5,1)(14,6,0)(14,11,0)(1,1,1)(3,3,0)(4,4,1)(5,5,3)(6,6,2)(7,7,1)(8,8,0)(9,9,0)(10,10,4)];
